(set-logic HORN)


(declare-fun |INV1| ( Int Int Int Int Int Int ) Bool)
(declare-fun |INV2| ( Int Int Int Int Int Int ) Bool)
(declare-fun |INV3| ( Int Int Int Int Int Int ) Bool)

(assert
  (forall ( (A Int) (B Int) (C Int) (D Int) (E Int) (F Int) (G Int) (H Int) (I Int) (J Int) ) 
    (=>
      (and
        (INV1 A B C D G H)
        (and (= H F) (= G (+ (- 1) E)) (>= D G) (not (>= A B)) (= I J))
      )
      (INV1 A B C D E F)
    )
  )
)
(assert
  (forall ( (A Int) (B Int) (C Int) (D Int) (E Int) (F Int) (G Int) (H Int) (I Int) (J Int) (K Int) (L Int) ) 
    (=>
      (and
        (INV1 A G H D I J)
        (and (= J F)
     (= I (+ (- 1) E))
     (= H C)
     (= G (+ (- 1) B))
     (>= A G)
     (>= D I)
     (= K L))
      )
      (INV1 A B C D E F)
    )
  )
)
(assert
  (forall ( (A Int) (B Int) (C Int) (D Int) (E Int) (F Int) (G Int) (H Int) (I Int) (J Int) ) 
    (=>
      (and
        (INV1 A G H D E F)
        (and (= H C) (= G (+ (- 1) B)) (not (>= D E)) (>= A G) (= I J))
      )
      (INV1 A B C D E F)
    )
  )
)
(assert
  (forall ( (A Int) (B Int) (C Int) (D Int) (E Int) (F Int) (G Int) (H Int) (I Int) (J Int) (K Int) (L Int) (M Int) (N Int) (O Int) (P Int) ) 
    (=>
      (and
        (INV1 I J M K L N)
        (INV2 A G H D E F)
        (and (= O P)
     (= G (+ (- 1) B))
     (not (>= D E))
     (>= A G)
     (not (>= K L))
     (not (>= I J))
     (= (+ H G) C))
      )
      (INV2 A B C D E F)
    )
  )
)
(assert
  (forall ( (A Int) (B Int) (C Int) (D Int) (E Int) (F Int) (G Int) (H Int) (I Int) (J Int) (K Int) (L Int) (M Int) (N Int) (O Int) (P Int) (Q Int) (R Int) ) 
    (=>
      (and
        (INV1 K L O M N P)
        (INV2 A G H D I J)
        (and (= (+ J I) F)
     (= G (+ (- 1) B))
     (= Q R)
     (= I (+ (- 1) E))
     (>= A G)
     (>= D I)
     (not (>= M N))
     (not (>= K L))
     (= (+ H G) C))
      )
      (INV2 A B C D E F)
    )
  )
)
(assert
  (forall ( (A Int) (B Int) (C Int) (D Int) (E Int) (F Int) (G Int) (H Int) (I Int) (J Int) (K Int) (L Int) (M Int) (N Int) (O Int) (P Int) ) 
    (=>
      (and
        (INV1 I J M K L N)
        (INV2 A B C D G H)
        (and (= O P)
     (= G (+ (- 1) E))
     (>= D G)
     (not (>= A B))
     (not (>= K L))
     (not (>= I J))
     (= (+ H G) F))
      )
      (INV2 A B C D E F)
    )
  )
)
(assert
  (forall ( (A Int) (B Int) (C Int) (D Int) (E Int) (F Int) (G Int) (H Int) (I Int) (J Int) (K Int) (L Int) (M Int) (N Int) (O Int) (P Int) (Q Int) (R Int) (S Int) (T Int) (U Int) (V Int) ) 
    (=>
      (and
        (INV1 O P S Q R T)
        (INV2 K L M I J N)
        (INV3 A B C D G H)
        (and (= G (+ (- 1) E))
     (= U V)
     (>= D G)
     (not (>= A B))
     (not (>= I J))
     (not (>= K L))
     (not (>= Q R))
     (not (>= O P))
     (= (* 2 H) F))
      )
      (INV3 A B C D E F)
    )
  )
)
(assert
  (forall ( (A Int) (B Int) (C Int) (D Int) (E Int) (F Int) (G Int) (H Int) (I Int) (J Int) (K Int) (L Int) (M Int) (N Int) (O Int) (P Int) (Q Int) (R Int) (S Int) (T Int) (U Int) (V Int) (W Int) (X Int) ) 
    (=>
      (and
        (INV1 Q R U S T V)
        (INV2 M N O K L P)
        (INV3 A G H D I J)
        (and (= (* 2 J) F)
     (= G (+ (- 1) B))
     (= I (+ (- 1) E))
     (= W X)
     (>= A G)
     (>= D I)
     (not (>= K L))
     (not (>= M N))
     (not (>= S T))
     (not (>= Q R))
     (= (* 2 H) C))
      )
      (INV3 A B C D E F)
    )
  )
)
(assert
  (forall ( (A Int) (B Int) (C Int) (D Int) (E Int) (F Int) (G Int) (H Int) (I Int) (J Int) (K Int) (L Int) (M Int) (N Int) (O Int) (P Int) (Q Int) (R Int) (S Int) (T Int) (U Int) (V Int) ) 
    (=>
      (and
        (INV1 O P S Q R T)
        (INV2 K L M I J N)
        (INV3 A G H D E F)
        (and (= G (+ (- 1) B))
     (= U V)
     (not (>= D E))
     (>= A G)
     (not (>= I J))
     (not (>= K L))
     (not (>= Q R))
     (not (>= O P))
     (= (* 2 H) C))
      )
      (INV3 A B C D E F)
    )
  )
)
(assert
  (forall ( (A Int) (B Int) (C Int) (D Int) (E Int) (F Int) (G Int) (H Int) (I Int) (J Int) (K Int) (L Int) (M Int) (N Int) (O Int) (P Int) ) 
    (=>
      (and
        (INV1 I J M K L N)
        (INV2 A H C D G F)
        (and (= E 1)
     (= O P)
     (not (>= D G))
     (not (>= A H))
     (not (>= K L))
     (not (>= I J))
     (= B 1))
      )
      (INV3 A B C D E F)
    )
  )
)
(assert
  (forall ( (A Int) (B Int) (C Int) (D Int) (E Int) (F Int) (G Int) (H Int) (I Int) (J Int) ) 
    (=>
      (and
        (INV1 A G C D H F)
        (and (= E 1) (= B 0) (not (>= D H)) (not (>= A G)) (= I J))
      )
      (INV2 A B C D E F)
    )
  )
)
(assert
  (forall ( (A Int) (B Int) (C Int) (D Int) (E Int) (F Int) ) 
    (=>
      (and
        (and (= E 1) (= C 1) (= B 1) (= A D) (= F 1))
      )
      (INV1 A B C D E F)
    )
  )
)
(assert
  (forall ( (A Int) (B Int) (C Int) (D Int) (E Int) (F Int) (G Int) (H Int) (I Int) (J Int) (K Int) (L Int) (M Int) (N Int) (O Int) (P Int) (Q Int) (R Int) (S Int) (T Int) ) 
    (=>
      (and
        (INV1 M N Q O P R)
        (INV2 I J K G H L)
        (INV3 C D A E F B)
        (and (= S T)
     (not (>= C D))
     (not (>= G H))
     (not (>= E F))
     (not (>= I J))
     (not (>= O P))
     (not (>= M N))
     (not (= A B)))
      )
      false
    )
  )
)

(check-sat)
(exit)
